
<<< setup


<<< generate

Version identifier: 22.1.1.0 | 2022-11-27 | 9160aff4d
Tried aggregator 1 time.
MIQCP Presolve eliminated 212 rows and 1 columns.
MIQCP Presolve modified 632 coefficients.
Reduced MIQCP has 1892 rows, 1848 columns, and 17341 nonzeros.
Reduced MIQCP has 140 binaries, 0 generals, 0 SOSs, and 0 indicators.
Reduced MIQCP has 268 quadratic constraints.
Presolve time = 0,12 sec. (48,39 ticks)
Probing fixed 0 vars, tightened 1144 bounds.
Probing time = 0,05 sec. (18,48 ticks)
Cover probing fixed 0 vars, tightened 43 bounds.
Clique table members: 411.
MIP emphasis: balance optimality and feasibility.
MIP search method: dynamic search.
Parallel mode: deterministic, using up to 12 threads.
Root relaxation solution time = 0,00 sec. (3,08 ticks)

        Nodes                                         Cuts/
   Node  Left     Objective  IInf  Best Integer    Best Bound    ItCnt     Gap

      0     0     1044,5741     0                   5616,5099       35         
      0     0     1043,1961     0                     Cone: 2       67         
      0     0     1042,1417    27                     Cone: 3       92         
      0     0     1039,8291    43                     Cone: 4      137         
      0     0     1037,6557    36                     Cone: 5      179         
      0     0     1036,4546    43                     Cone: 6      229         
      0     0     1035,0179    48                     Cone: 7      282         
      0     0      952,4137    57                   Cone: 502     1166         
      0     0      952,4137   109                   Cone: 641     1306         
      0     0      952,4137   136                   Cone: 779     1469         
      0     0      952,4137   135                   Cone: 918     1665         
      0     0      952,4137   137                  Cone: 1057     1808         
      0     0      952,4137   137                  Cone: 1194     1947         
      0     0      952,4137   137                  Cone: 1323     2074         
      0     0      952,4137   137                  Cone: 1422     2180         
      0     0      952,4137   137                  Cone: 1467     2278         
      0     0      952,4137   137                  Cone: 1502     2315         
      0     0      952,4137   137                  Cone: 1527     2351         
      0     0      952,4137   137                  Cone: 1543     2497         
      0     0      952,4137   137                  Cone: 1561     2520         
      0     0      952,4137   137                  Cone: 1576     2676         
      0     0      952,4137   136                  Cone: 1597     2702         
      0     0      952,4137   137                  Cone: 1615     2741         
      0     0      952,4137   137                    952,4137     2761         
*     0+    0                          188,4600      952,4137           405,37%
      0     2      952,4137   137      188,4600      952,4137     2798  405,37%
Elapsed time = 44,66 sec. (16849,36 ticks, tree = 0,02 MB, solutions = 1)
      1     3      925,2065   132      188,4600      952,4137     2816  405,37%
      2     4      894,7495   128      188,4600      952,4137     2835  405,37%
      3     3      947,7418   137      188,4600      952,4137     2816  405,37%
      4     5      890,8762   127      188,4600      952,4137     2852  405,37%
      5     6      916,0059   131      188,4600      947,7418     2869  402,89%
      7     7      842,9669   116      188,4600      947,7418     2889  402,89%
      9     8      884,3269   124      188,4600      947,7418     2903  402,89%
     12     4      921,3119   131      188,4600      943,1031     2833  400,43%
     14    10      838,8166   114      188,4600      943,1031     2950  400,43%
     20    16      907,5909   128      188,4600      938,0459     3057  397,74%
Elapsed time = 60,41 sec. (26190,09 ticks, tree = 0,02 MB, solutions = 1)
